(declare-const x Real)
(declare-const y Real)
(declare-const z Real)
(declare-const vx Real)
(declare-const vy Real)
(declare-const vz Real)
(declare-const t0 Real)
(assert (= (+ x (* vx t0)) (+ 291493672529314 (* -9 t0))))
(assert (= (+ y (* vy t0)) (+ 259618209733833 (* 119 t0))))
(assert (= (+ z (* vz t0)) (+ 379287136024123 (* -272 t0))))
(declare-const t1 Real)
(assert (= (+ x (* vx t1)) (+ 308409248682955 (* -78 t1))))
(assert (= (+ y (* vy t1)) (+ 156803514643857 (* 236 t1))))
(assert (= (+ z (* vz t1)) (+ 424989308414284 (* -255 t1))))
(declare-const t2 Real)
(assert (= (+ x (* vx t2)) (+ 195379943194796 (* 25 t2))))
(assert (= (+ y (* vy t2)) (+ 213851381371727 (* 14 t2))))
(assert (= (+ z (* vz t2)) (+ 355270583377422 (* -15 t2))))
(declare-const t3 Real)
(assert (= (+ x (* vx t3)) (+ 297329579961934 (* -87 t3))))
(assert (= (+ y (* vy t3)) (+ 122004770593749 (* 185 t3))))
(assert (= (+ z (* vz t3)) (+ 344090716183747 (* -36 t3))))
(check-sat)
(get-model)
